
# time horizon
param T := 100 ;

# retirement are
param R := 65 ;

# labor endowment
param l_bar := 1.0 ;
    
# discount factor
param beta := 0.95 ;
    
# inverse elasticity of substitution for consumption
param theta := 2.0 ;

# interest rate 
param r := 0.05 ;

# lower bound on asset holdings
param minimum_assets := -10.0 ;